************************************************************************
file with basedata            : mm18_.bas
initial value random generator: 15836538
************************************************************************
projects                      :  1
jobs (incl. supersource/sink ):  12
horizon                       :  82
RESOURCES
  - renewable                 :  2   R
  - nonrenewable              :  2   N
  - doubly constrained        :  0   D
************************************************************************
PROJECT INFORMATION:
pronr.  #jobs rel.date duedate tardcost  MPM-Time
    1     10      0       15        3       15
************************************************************************
PRECEDENCE RELATIONS:
jobnr.    #modes  #successors   successors
   1        1          3           2   3   4
   2        3          1           9
   3        3          2           5   8
   4        3          1           5
   5        3          3           6   7  11
   6        3          1          10
   7        3          1           9
   8        3          3           9  10  11
   9        3          1          12
  10        3          1          12
  11        3          1          12
  12        1          0        
************************************************************************
REQUESTS/DURATIONS:
jobnr. mode duration  R 1  R 2  N 1  N 2
------------------------------------------------------------------------
  1      1     0       0    0    0    0
  2      1     4       0    3    5    0
         2     6       0    3    4    0
         3     9       0    3    0    3
  3      1     2       0    5    4    0
         2     3       5    0    2    0
         3     6       0    2    1    0
  4      1     3       0    8    0    3
         2     7       4    0    0    2
         3     8       0    3   10    0
  5      1     2       0    6    0    8
         2     5       0    5    0    7
         3     7       0    3    0    7
  6      1     2       0    9   10    0
         2     7       0    8    9    0
         3    10       0    5    0    7
  7      1     5       4    0    0    9
         2     5       0    3    3    0
         3     7       3    0    0    8
  8      1     3       0    4    4    0
         2     6       0    4    3    0
         3     9       1    0    0    1
  9      1     5       6    0    7    0
         2     8       5    0    0    5
         3     8       0    4    3    0
 10      1     7       0   10    3    0
         2     8       0    7    2    0
         3    10       7    0    2    0
 11      1     4       7    0    0    9
         2     7       2    0    8    0
         3     8       0    7    0    8
 12      1     0       0    0    0    0
************************************************************************
RESOURCEAVAILABILITIES:
  R 1  R 2  N 1  N 2
   14   16   29   26
************************************************************************
MAXIMAL LAGS:
from  to  type  delay
    1   12   ES      0
    1    2   ES      0
    2   12   ES      0
    1    3   ES      0
    3   12   ES      0
    1    4   ES      0
    4   12   ES      0
    1    5   ES      0
    5   12   ES      0
    1    6   ES      0
    6   12   ES      0
    1    7   ES      0
    7   12   ES      0
    1    8   ES      0
    8   12   ES      0
    1    9   ES      0
    9   12   ES      0
    1   10   ES      0
   10   12   ES      0
    1   11   ES      0
   11   12   ES      0
    1   12   ES      0
    2    9   SS      9
    2    9   SE      9
    2    9   ES     -1
    2    9   EE     -7
    3    5   SS      8
    3    5   SE      7
    3    5   ES    -11
    3    5   EE      6
    3    8   SS      8
    3    8   SE      9
    3    8   ES      8
    3    8   EE      0
    4    5   SS     12
    4    5   SE     -2
    4    5   ES      1
    4    5   EE     -9
    5    6   SS    -12
    5    6   SE     -9
    5    6   ES     -4
    5    6   EE     -5
    5    7   SS      4
    5    7   SE     11
    5    7   ES      4
    5    7   EE      5
    5   11   SS      6
    5   11   SE     10
    5   11   ES      6
    5   11   EE     -5
    6   10   SS      2
    6   10   SE     -1
   10    6   SE      0
    6   10   ES      0
    6   10   EE      2
    7    9   SS     12
    7    9   SE      9
    7    9   ES      6
    7    9   EE     10
    8    9   SS      4
    8    9   SE     -8
    8    9   ES     -1
    8    9   EE    -12
    8   10   SS      3
    8   10   SE     -9
    8   10   ES     -3
    8   10   EE      1
    8   11   SS    -10
    8   11   SE     -9
    8   11   ES     11
    8   11   EE     -8
************************************************************************
